200
[40,41,42,43,44,45,46,47,48,50,51,52,53,55,56,57,58,59,60,61,62,64,65,66,67,68,69,71,73,74,76,77,78,79,80,81,82,83,84,85,86,87,88,90,91,92,94,95,96,97,98,99,100,101,103,104,105,106,107,108,109,110,111,112,113,114,115,116,117,118,119,120,121,122,123,125,126,127,128,129,130,132,133,135,136,137,138,139,140]
[1,3,2,3,5,4,2,3,2,1,1,2,2,1,3,2,2,1,3,2,2,2,2,2,1,5,3,4,2,1,3,2,1,2,4,1,1,4,4,2,5,1,2,1,1,2,1,1,6,3,2,4,1,1,2,2,2,1,1,3,2,1,3,3,2,2,1,1,6,3,4,2,2,4,1,2,2,2,2,3,1,1,4,1,1,3,1,1,4]
